0100011101110111111010110011000000000000000000000000000000000110100101111101101110100000001100000110111111101011000001111110011011111000001001001110110101111011101110100100111010110101110011011101010001011001000000100000001101000110111000100010001001110100011111111111011111101011111001111111111111111111101111101111111101111111111111110100011101011111110111100011010001111111111111111111011110001001011100110011010000011110111111111111111111111011010011000111010111011101101011001111111111111111111111110100011111110111111111011111110011111111111111111111101101000111111111011111110011110100011111101111011111111111110011111111111111111111101111001111111111111111111111111110111111111111111111111111110011111111111111111111101100000000000000000000000000000100011101111111111011101111110011111111111111111111111110001111111011001110001001111000100010011000100101101100110011111111111111111111111111101111111111101111111110110100011111111101011111111111